c 
c G(k,n,p) graph
c graph gen seed     : 654
c number of vertices : 25
c max number of edges: 500
c number of classes  : 2
c edge density       : 0.400000
c edge probability   : 0.800000
c data structure     : sparse
c
c           Graph Stats
c number of vertices  : 25
c nonisolated vertices: 25
c number of edges     : 112
c edge density        : 0.373333
c max degree          : 15
c avg degree          : 8.96
c min degree          : 4
p col 25 112
e 1 25
e 1 23
e 1 22
e 1 21
e 1 20
e 1 18
e 1 17
e 1 16
e 1 15
e 1 13
e 1 12
e 1 10
e 1 9
e 1 7
e 1 4
e 2 25
e 2 24
e 2 23
e 2 22
e 2 21
e 2 20
e 2 18
e 2 17
e 2 16
e 2 15
e 2 13
e 2 10
e 2 7
e 2 3
e 3 19
e 3 14
e 3 11
e 3 6
e 3 5
e 4 14
e 4 8
e 4 5
e 5 25
e 5 24
e 5 23
e 5 21
e 5 20
e 5 18
e 5 15
e 5 13
e 5 12
e 5 10
e 5 9
e 5 7
e 6 25
e 6 24
e 6 23
e 6 21
e 6 20
e 6 17
e 6 16
e 6 15
e 6 13
e 6 10
e 6 9
e 6 7
e 7 14
e 7 8
e 8 25
e 8 24
e 8 23
e 8 22
e 8 21
e 8 20
e 8 18
e 8 17
e 8 16
e 8 15
e 8 13
e 8 12
e 8 10
e 9 19
e 9 14
e 9 11
e 10 19
e 10 11
e 11 25
e 11 24
e 11 23
e 11 22
e 11 21
e 11 20
e 11 18
e 11 16
e 11 13
e 11 12
e 12 19
e 12 14
e 13 19
e 13 14
e 14 24
e 14 23
e 14 22
e 14 21
e 14 20
e 14 17
e 14 16
e 14 15
e 16 19
e 17 19
e 18 19
e 19 25
e 19 24
e 19 23
e 19 22
e 19 21
e 19 20
